 10 10
 8 14 4 75 3 12 2 38 0 76 5 97 9 12 1 29 7 44 6 66
 5 38 3 82 2 85 4 58 6 87 9 89 0 43 1 80 7 69 8 92
 9 5 1 84 0 43 6 48 4 8 7 7 3 41 5 61 8 66 2 14
 2 42 1 8 0 96 5 19 4 59 7 97 9 73 8 43 3 74 6 41
 6 55 2 70 3 75 8 42 4 37 7 23 1 48 5 5 9 38 0 7
 8 9 2 72 7 31 0 79 5 73 3 95 4 25 6 43 9 60 1 56
 0 97 2 64 3 78 5 21 4 94 9 31 8 53 6 16 7 86 1 7
 3 86 7 85 9 63 0 61 2 65 4 30 5 32 1 33 8 44 6 59
 2 44 3 16 4 11 6 45 1 30 9 84 8 93 0 60 5 61 7 90
 7 36 8 31 4 47 6 52 0 32 5 11 2 28 9 35 3 20 1 49

740.8 1156.8 603.2 883.2 640 868.8 875.2 892.8 854.4 545.6
4 4 2 2 2 2 2 2 1 1